p cnf 145 1097
-1 -2 0
-1 -3 0
-1 -4 0
-1 -5 0
-1 -6 0
-2 -3 0
-2 -4 0
-2 -5 0
-2 -6 0
-3 -4 0
-3 -5 0
-3 -6 0
-4 -5 0
-4 -6 0
-5 -6 0
1 2 3 4 5 6 0
-7 -8 0
-7 -9 0
-7 -10 0
-7 -11 0
-7 -12 0
-7 -13 0
-7 -14 0
-7 -15 0
-8 -9 0
-8 -10 0
-8 -11 0
-8 -12 0
-8 -13 0
-8 -14 0
-8 -15 0
-9 -10 0
-9 -11 0
-9 -12 0
-9 -13 0
-9 -14 0
-9 -15 0
-10 -11 0
-10 -12 0
-10 -13 0
-10 -14 0
-10 -15 0
-11 -12 0
-11 -13 0
-11 -14 0
-11 -15 0
-12 -13 0
-12 -14 0
-12 -15 0
-13 -14 0
-13 -15 0
-14 -15 0
7 8 9 10 11 12 13 14 15 0
-16 -17 0
-16 -18 0
-16 -19 0
-16 -20 0
-16 -21 0
-16 -22 0
-16 -23 0
-16 -24 0
-16 -25 0
-16 -26 0
-16 -27 0
-17 -18 0
-17 -19 0
-17 -20 0
-17 -21 0
-17 -22 0
-17 -23 0
-17 -24 0
-17 -25 0
-17 -26 0
-17 -27 0
-18 -19 0
-18 -20 0
-18 -21 0
-18 -22 0
-18 -23 0
-18 -24 0
-18 -25 0
-18 -26 0
-18 -27 0
-19 -20 0
-19 -21 0
-19 -22 0
-19 -23 0
-19 -24 0
-19 -25 0
-19 -26 0
-19 -27 0
-20 -21 0
-20 -22 0
-20 -23 0
-20 -24 0
-20 -25 0
-20 -26 0
-20 -27 0
-21 -22 0
-21 -23 0
-21 -24 0
-21 -25 0
-21 -26 0
-21 -27 0
-22 -23 0
-22 -24 0
-22 -25 0
-22 -26 0
-22 -27 0
-23 -24 0
-23 -25 0
-23 -26 0
-23 -27 0
-24 -25 0
-24 -26 0
-24 -27 0
-25 -26 0
-25 -27 0
-26 -27 0
16 17 18 19 20 21 22 23 24 25 26 27 0
-1 -16 0
-1 -28 0
-1 -29 0
-1 -30 0
-1 -31 0
-16 -28 0
-16 -29 0
-16 -30 0
-16 -31 0
-28 -29 0
-28 -30 0
-28 -31 0
-29 -30 0
-29 -31 0
-30 -31 0
1 16 28 29 30 31 0
-7 -32 0
-7 -33 0
-32 -33 0
7 32 33 0
-34 -35 0
-34 -36 0
-34 -37 0
-34 -38 0
-34 -39 0
-34 -40 0
-35 -36 0
-35 -37 0
-35 -38 0
-35 -39 0
-35 -40 0
-36 -37 0
-36 -38 0
-36 -39 0
-36 -40 0
-37 -38 0
-37 -39 0
-37 -40 0
-38 -39 0
-38 -40 0
-39 -40 0
34 35 36 37 38 39 40 0
-17 -41 0
-17 -42 0
-17 -43 0
-41 -42 0
-41 -43 0
-42 -43 0
17 41 42 43 0
-44 -45 0
-44 -46 0
-45 -46 0
44 45 46 0
-2 -8 0
-2 -18 0
-2 -44 0
-2 -47 0
-2 -48 0
-2 -49 0
-2 -50 0
-8 -18 0
-8 -44 0
-8 -47 0
-8 -48 0
-8 -49 0
-8 -50 0
-18 -44 0
-18 -47 0
-18 -48 0
-18 -49 0
-18 -50 0
-44 -47 0
-44 -48 0
-44 -49 0
-44 -50 0
-47 -48 0
-47 -49 0
-47 -50 0
-48 -49 0
-48 -50 0
-49 -50 0
2 8 18 44 47 48 49 50 0
-19 -51 0
-19 -52 0
-19 -53 0
-19 -54 0
-19 -55 0
-19 -56 0
-19 -57 0
-19 -58 0
-51 -52 0
-51 -53 0
-51 -54 0
-51 -55 0
-51 -56 0
-51 -57 0
-51 -58 0
-52 -53 0
-52 -54 0
-52 -55 0
-52 -56 0
-52 -57 0
-52 -58 0
-53 -54 0
-53 -55 0
-53 -56 0
-53 -57 0
-53 -58 0
-54 -55 0
-54 -56 0
-54 -57 0
-54 -58 0
-55 -56 0
-55 -57 0
-55 -58 0
-56 -57 0
-56 -58 0
-57 -58 0
19 51 52 53 54 55 56 57 58 0
-34 -45 0
-34 -51 0
-34 -59 0
-34 -60 0
-34 -61 0
-34 -62 0
-34 -63 0
-34 -64 0
-45 -51 0
-45 -59 0
-45 -60 0
-45 -61 0
-45 -62 0
-45 -63 0
-45 -64 0
-51 -59 0
-51 -60 0
-51 -61 0
-51 -62 0
-51 -63 0
-51 -64 0
-59 -60 0
-59 -61 0
-59 -62 0
-59 -63 0
-59 -64 0
-60 -61 0
-60 -62 0
-60 -63 0
-60 -64 0
-61 -62 0
-61 -63 0
-61 -64 0
-62 -63 0
-62 -64 0
-63 -64 0
34 45 51 59 60 61 62 63 64 0
-9 -35 0
-9 -65 0
-9 -66 0
-9 -67 0
-9 -68 0
-9 -69 0
-9 -70 0
-9 -71 0
-9 -72 0
-9 -73 0
-35 -65 0
-35 -66 0
-35 -67 0
-35 -68 0
-35 -69 0
-35 -70 0
-35 -71 0
-35 -72 0
-35 -73 0
-65 -66 0
-65 -67 0
-65 -68 0
-65 -69 0
-65 -70 0
-65 -71 0
-65 -72 0
-65 -73 0
-66 -67 0
-66 -68 0
-66 -69 0
-66 -70 0
-66 -71 0
-66 -72 0
-66 -73 0
-67 -68 0
-67 -69 0
-67 -70 0
-67 -71 0
-67 -72 0
-67 -73 0
-68 -69 0
-68 -70 0
-68 -71 0
-68 -72 0
-68 -73 0
-69 -70 0
-69 -71 0
-69 -72 0
-69 -73 0
-70 -71 0
-70 -72 0
-70 -73 0
-71 -72 0
-71 -73 0
-72 -73 0
9 35 65 66 67 68 69 70 71 72 73 0
-59 -74 0
-59 -75 0
-59 -76 0
-59 -77 0
-59 -78 0
-59 -79 0
-59 -80 0
-74 -75 0
-74 -76 0
-74 -77 0
-74 -78 0
-74 -79 0
-74 -80 0
-75 -76 0
-75 -77 0
-75 -78 0
-75 -79 0
-75 -80 0
-76 -77 0
-76 -78 0
-76 -79 0
-76 -80 0
-77 -78 0
-77 -79 0
-77 -80 0
-78 -79 0
-78 -80 0
-79 -80 0
59 74 75 76 77 78 79 80 0
-20 -60 0
-20 -65 0
-20 -81 0
-20 -82 0
-20 -83 0
-20 -84 0
-20 -85 0
-20 -86 0
-20 -87 0
-20 -88 0
-60 -65 0
-60 -81 0
-60 -82 0
-60 -83 0
-60 -84 0
-60 -85 0
-60 -86 0
-60 -87 0
-60 -88 0
-65 -81 0
-65 -82 0
-65 -83 0
-65 -84 0
-65 -85 0
-65 -86 0
-65 -87 0
-65 -88 0
-81 -82 0
-81 -83 0
-81 -84 0
-81 -85 0
-81 -86 0
-81 -87 0
-81 -88 0
-82 -83 0
-82 -84 0
-82 -85 0
-82 -86 0
-82 -87 0
-82 -88 0
-83 -84 0
-83 -85 0
-83 -86 0
-83 -87 0
-83 -88 0
-84 -85 0
-84 -86 0
-84 -87 0
-84 -88 0
-85 -86 0
-85 -87 0
-85 -88 0
-86 -87 0
-86 -88 0
-87 -88 0
20 60 65 81 82 83 84 85 86 87 88 0
-61 -74 0
-61 -89 0
-61 -90 0
-61 -91 0
-61 -92 0
-61 -93 0
-61 -94 0
-61 -95 0
-61 -96 0
-61 -97 0
-74 -89 0
-74 -90 0
-74 -91 0
-74 -92 0
-74 -93 0
-74 -94 0
-74 -95 0
-74 -96 0
-74 -97 0
-89 -90 0
-89 -91 0
-89 -92 0
-89 -93 0
-89 -94 0
-89 -95 0
-89 -96 0
-89 -97 0
-90 -91 0
-90 -92 0
-90 -93 0
-90 -94 0
-90 -95 0
-90 -96 0
-90 -97 0
-91 -92 0
-91 -93 0
-91 -94 0
-91 -95 0
-91 -96 0
-91 -97 0
-92 -93 0
-92 -94 0
-92 -95 0
-92 -96 0
-92 -97 0
-93 -94 0
-93 -95 0
-93 -96 0
-93 -97 0
-94 -95 0
-94 -96 0
-94 -97 0
-95 -96 0
-95 -97 0
-96 -97 0
61 74 89 90 91 92 93 94 95 96 97 0
-3 -47 0
-3 -98 0
-3 -99 0
-3 -100 0
-3 -101 0
-3 -102 0
-47 -98 0
-47 -99 0
-47 -100 0
-47 -101 0
-47 -102 0
-98 -99 0
-98 -100 0
-98 -101 0
-98 -102 0
-99 -100 0
-99 -101 0
-99 -102 0
-100 -101 0
-100 -102 0
-101 -102 0
3 47 98 99 100 101 102 0
-21 -41 0
-21 -48 0
-21 -52 0
-21 -75 0
-21 -103 0
-21 -104 0
-21 -105 0
-21 -106 0
-41 -48 0
-41 -52 0
-41 -75 0
-41 -103 0
-41 -104 0
-41 -105 0
-41 -106 0
-48 -52 0
-48 -75 0
-48 -103 0
-48 -104 0
-48 -105 0
-48 -106 0
-52 -75 0
-52 -103 0
-52 -104 0
-52 -105 0
-52 -106 0
-75 -103 0
-75 -104 0
-75 -105 0
-75 -106 0
-103 -104 0
-103 -105 0
-103 -106 0
-104 -105 0
-104 -106 0
-105 -106 0
21 41 48 52 75 103 104 105 106 0
-81 -89 0
-81 -107 0
-81 -108 0
-81 -109 0
-81 -110 0
-81 -111 0
-81 -112 0
-89 -107 0
-89 -108 0
-89 -109 0
-89 -110 0
-89 -111 0
-89 -112 0
-107 -108 0
-107 -109 0
-107 -110 0
-107 -111 0
-107 -112 0
-108 -109 0
-108 -110 0
-108 -111 0
-108 -112 0
-109 -110 0
-109 -111 0
-109 -112 0
-110 -111 0
-110 -112 0
-111 -112 0
81 89 107 108 109 110 111 112 0
-4 -22 0
-4 -90 0
-4 -103 0
-4 -107 0
-4 -113 0
-4 -114 0
-4 -115 0
-4 -116 0
-22 -90 0
-22 -103 0
-22 -107 0
-22 -113 0
-22 -114 0
-22 -115 0
-22 -116 0
-90 -103 0
-90 -107 0
-90 -113 0
-90 -114 0
-90 -115 0
-90 -116 0
-103 -107 0
-103 -113 0
-103 -114 0
-103 -115 0
-103 -116 0
-107 -113 0
-107 -114 0
-107 -115 0
-107 -116 0
-113 -114 0
-113 -115 0
-113 -116 0
-114 -115 0
-114 -116 0
-115 -116 0
4 22 90 103 107 113 114 115 116 0
-10 -23 0
-10 -32 0
-10 -36 0
-10 -82 0
-10 -98 0
-10 -117 0
-10 -118 0
-23 -32 0
-23 -36 0
-23 -82 0
-23 -98 0
-23 -117 0
-23 -118 0
-32 -36 0
-32 -82 0
-32 -98 0
-32 -117 0
-32 -118 0
-36 -82 0
-36 -98 0
-36 -117 0
-36 -118 0
-82 -98 0
-82 -117 0
-82 -118 0
-98 -117 0
-98 -118 0
-117 -118 0
10 23 32 36 82 98 117 118 0
-62 -66 0
-62 -119 0
-62 -120 0
-62 -121 0
-62 -122 0
-66 -119 0
-66 -120 0
-66 -121 0
-66 -122 0
-119 -120 0
-119 -121 0
-119 -122 0
-120 -121 0
-120 -122 0
-121 -122 0
62 66 119 120 121 122 0
-11 -37 0
-11 -83 0
-11 -91 0
-11 -108 0
-11 -113 0
-11 -123 0
-11 -124 0
-37 -83 0
-37 -91 0
-37 -108 0
-37 -113 0
-37 -123 0
-37 -124 0
-83 -91 0
-83 -108 0
-83 -113 0
-83 -123 0
-83 -124 0
-91 -108 0
-91 -113 0
-91 -123 0
-91 -124 0
-108 -113 0
-108 -123 0
-108 -124 0
-113 -123 0
-113 -124 0
-123 -124 0
11 37 83 91 108 113 123 124 0
-53 -67 0
-53 -76 0
-53 -99 0
-53 -109 0
-53 -125 0
-53 -126 0
-53 -127 0
-67 -76 0
-67 -99 0
-67 -109 0
-67 -125 0
-67 -126 0
-67 -127 0
-76 -99 0
-76 -109 0
-76 -125 0
-76 -126 0
-76 -127 0
-99 -109 0
-99 -125 0
-99 -126 0
-99 -127 0
-109 -125 0
-109 -126 0
-109 -127 0
-125 -126 0
-125 -127 0
-126 -127 0
53 67 76 99 109 125 126 127 0
-63 -110 0
-63 -114 0
-63 -128 0
-63 -129 0
-110 -114 0
-110 -128 0
-110 -129 0
-114 -128 0
-114 -129 0
-128 -129 0
63 110 114 128 129 0
-24 -38 0
-24 -49 0
-24 -54 0
-24 -92 0
-24 -119 0
-24 -130 0
-24 -131 0
-38 -49 0
-38 -54 0
-38 -92 0
-38 -119 0
-38 -130 0
-38 -131 0
-49 -54 0
-49 -92 0
-49 -119 0
-49 -130 0
-49 -131 0
-54 -92 0
-54 -119 0
-54 -130 0
-54 -131 0
-92 -119 0
-92 -130 0
-92 -131 0
-119 -130 0
-119 -131 0
-130 -131 0
24 38 49 54 92 119 130 131 0
-42 -84 0
-42 -93 0
-42 -104 0
-42 -132 0
-84 -93 0
-84 -104 0
-84 -132 0
-93 -104 0
-93 -132 0
-104 -132 0
42 84 93 104 132 0
-5 -12 0
-5 -39 0
-5 -46 0
-5 -50 0
-5 -55 0
-5 -77 0
-5 -94 0
-5 -100 0
-5 -105 0
-5 -120 0
-5 -128 0
-5 -133 0
-12 -39 0
-12 -46 0
-12 -50 0
-12 -55 0
-12 -77 0
-12 -94 0
-12 -100 0
-12 -105 0
-12 -120 0
-12 -128 0
-12 -133 0
-39 -46 0
-39 -50 0
-39 -55 0
-39 -77 0
-39 -94 0
-39 -100 0
-39 -105 0
-39 -120 0
-39 -128 0
-39 -133 0
-46 -50 0
-46 -55 0
-46 -77 0
-46 -94 0
-46 -100 0
-46 -105 0
-46 -120 0
-46 -128 0
-46 -133 0
-50 -55 0
-50 -77 0
-50 -94 0
-50 -100 0
-50 -105 0
-50 -120 0
-50 -128 0
-50 -133 0
-55 -77 0
-55 -94 0
-55 -100 0
-55 -105 0
-55 -120 0
-55 -128 0
-55 -133 0
-77 -94 0
-77 -100 0
-77 -105 0
-77 -120 0
-77 -128 0
-77 -133 0
-94 -100 0
-94 -105 0
-94 -120 0
-94 -128 0
-94 -133 0
-100 -105 0
-100 -120 0
-100 -128 0
-100 -133 0
-105 -120 0
-105 -128 0
-105 -133 0
-120 -128 0
-120 -133 0
-128 -133 0
5 12 39 46 50 55 77 94 100 105 120 128 133 0
-6 -43 0
-6 -56 0
-6 -68 0
-6 -123 0
-6 -125 0
-43 -56 0
-43 -68 0
-43 -123 0
-43 -125 0
-56 -68 0
-56 -123 0
-56 -125 0
-68 -123 0
-68 -125 0
-123 -125 0
6 43 56 68 123 125 0
-25 -57 0
-25 -69 0
-25 -95 0
-25 -101 0
-25 -121 0
-25 -126 0
-25 -134 0
-25 -135 0
-57 -69 0
-57 -95 0
-57 -101 0
-57 -121 0
-57 -126 0
-57 -134 0
-57 -135 0
-69 -95 0
-69 -101 0
-69 -121 0
-69 -126 0
-69 -134 0
-69 -135 0
-95 -101 0
-95 -121 0
-95 -126 0
-95 -134 0
-95 -135 0
-101 -121 0
-101 -126 0
-101 -134 0
-101 -135 0
-121 -126 0
-121 -134 0
-121 -135 0
-126 -134 0
-126 -135 0
-134 -135 0
25 57 69 95 101 121 126 134 135 0
-70 -78 0
-70 -85 0
-70 -117 0
-70 -129 0
-70 -130 0
-70 -136 0
-70 -137 0
-70 -138 0
-78 -85 0
-78 -117 0
-78 -129 0
-78 -130 0
-78 -136 0
-78 -137 0
-78 -138 0
-85 -117 0
-85 -129 0
-85 -130 0
-85 -136 0
-85 -137 0
-85 -138 0
-117 -129 0
-117 -130 0
-117 -136 0
-117 -137 0
-117 -138 0
-129 -130 0
-129 -136 0
-129 -137 0
-129 -138 0
-130 -136 0
-130 -137 0
-130 -138 0
-136 -137 0
-136 -138 0
-137 -138 0
70 78 85 117 129 130 136 137 138 0
-28 -33 0
-28 -58 0
-28 -71 0
-28 -86 0
-28 -131 0
-28 -132 0
-28 -139 0
-33 -58 0
-33 -71 0
-33 -86 0
-33 -131 0
-33 -132 0
-33 -139 0
-58 -71 0
-58 -86 0
-58 -131 0
-58 -132 0
-58 -139 0
-71 -86 0
-71 -131 0
-71 -132 0
-71 -139 0
-86 -131 0
-86 -132 0
-86 -139 0
-131 -132 0
-131 -139 0
-132 -139 0
28 33 58 71 86 131 132 139 0
-13 -96 0
-13 -134 0
-13 -139 0
-13 -140 0
-13 -141 0
-13 -142 0
-13 -143 0
-96 -134 0
-96 -139 0
-96 -140 0
-96 -141 0
-96 -142 0
-96 -143 0
-134 -139 0
-134 -140 0
-134 -141 0
-134 -142 0
-134 -143 0
-139 -140 0
-139 -141 0
-139 -142 0
-139 -143 0
-140 -141 0
-140 -142 0
-140 -143 0
-141 -142 0
-141 -143 0
-142 -143 0
13 96 134 139 140 141 142 143 0
-87 -122 0
-87 -124 0
-87 -135 0
-87 -136 0
-122 -124 0
-122 -135 0
-122 -136 0
-124 -135 0
-124 -136 0
-135 -136 0
87 122 124 135 136 0
-26 -111 0
-26 -115 0
-26 -133 0
-26 -140 0
-26 -144 0
-111 -115 0
-111 -133 0
-111 -140 0
-111 -144 0
-115 -133 0
-115 -140 0
-115 -144 0
-133 -140 0
-133 -144 0
-140 -144 0
26 111 115 133 140 144 0
-29 -64 0
-29 -79 0
-29 -116 0
-29 -118 0
-29 -137 0
-29 -141 0
-64 -79 0
-64 -116 0
-64 -118 0
-64 -137 0
-64 -141 0
-79 -116 0
-79 -118 0
-79 -137 0
-79 -141 0
-116 -118 0
-116 -137 0
-116 -141 0
-118 -137 0
-118 -141 0
-137 -141 0
29 64 79 116 118 137 141 0
-72 -97 0
-72 -112 0
-72 -144 0
-72 -145 0
-97 -112 0
-97 -144 0
-97 -145 0
-112 -144 0
-112 -145 0
-144 -145 0
72 97 112 144 145 0
-14 -27 0
-14 -30 0
-14 -80 0
-14 -88 0
-14 -106 0
-14 -138 0
-14 -142 0
-27 -30 0
-27 -80 0
-27 -88 0
-27 -106 0
-27 -138 0
-27 -142 0
-30 -80 0
-30 -88 0
-30 -106 0
-30 -138 0
-30 -142 0
-80 -88 0
-80 -106 0
-80 -138 0
-80 -142 0
-88 -106 0
-88 -138 0
-88 -142 0
-106 -138 0
-106 -142 0
-138 -142 0
14 27 30 80 88 106 138 142 0
-15 -31 0
-15 -40 0
-15 -73 0
-15 -102 0
-15 -127 0
-15 -143 0
-15 -145 0
-31 -40 0
-31 -73 0
-31 -102 0
-31 -127 0
-31 -143 0
-31 -145 0
-40 -73 0
-40 -102 0
-40 -127 0
-40 -143 0
-40 -145 0
-73 -102 0
-73 -127 0
-73 -143 0
-73 -145 0
-102 -127 0
-102 -143 0
-102 -145 0
-127 -143 0
-127 -145 0
-143 -145 0
15 31 40 73 102 127 143 145 0
